NAME : rc201.0.8537075.tour
COMMENT : Length = 8537075
COMMENT : Found by LKH [Keld Helsgaun] Tue Nov  7 19:52:16 2017
TYPE : TOUR
DIMENSION : 26
TOUR_SECTION
1
12
3
2
16
24
20
7
6
9
10
19
22
21
14
25
13
4
5
23
18
8
11
15
17
26
-1
EOF
